
  26    0


   0  17 2 3 4 5 6 7 10 11 12 13 14 15 21 22 23 24 25 
   9   3 20 18 9 
  10   3 18 17 8 
   2   3 19 18 16 
   3   3 19 18 17 
   4   3 19 17 16 
   7   2 20 16 
   2   1 16 
   5   1 16 
   8   1 18 
  10   1 17 
   6   1 17 
   2   1 16 
  10   1 16 
   9   1 16 
   9   1 26
   3   1 26
   4   1 26
   8   1 26
   5   1 26
   5   1 26
  10   1 26
   4   1 26
   1   1 26
   8   1 26
   0   0 
